22
8
6 17 8 14 2 18 0 9 19 10 21 15 20 13 4 3 12 5 11 1
8 12 6 0 19 14 2 11 16 15 17 13
19 21 10 0 18 7
2 16 9 12 11 14 0 8
12 8 19 2 0 13 10 18 7 16 9 5 17 11 4 15 20 21
11 15 3 17 16 20 0 5 8 7 10 21 9 14 19 1
8 5 1 16 14 13 12 2 19 0 11 18 10 9 15 20 6 3 7
8 16 19 14 10 2 9 17 12 11 0 3 7 18 15 21 6
